(declare-sort %%Function%% 0)
(declare-sort FuelId 0)
(declare-sort Fuel 0)
(declare-const zero Fuel)
(declare-fun succ (Fuel) Fuel)
(declare-fun fuel_bool (FuelId) Bool)
(declare-fun fuel_bool_default (FuelId) Bool)
(declare-const fuel_defaults Bool)
(declare-datatypes ((fndef 0)) (((fndef_singleton))))
(declare-sort Poly 0)
(declare-sort Height 0)
(declare-fun I (Int) Poly)
(declare-fun B (Bool) Poly)
(declare-fun R (Real) Poly)
(declare-fun F (fndef) Poly)
(declare-fun %I (Poly) Int)
(declare-fun %B (Poly) Bool)
(declare-fun %R (Poly) Real)
(declare-fun %F (Poly) fndef)
(declare-sort Type 0)
(declare-const BOOL Type)
(declare-const INT Type)
(declare-const NAT Type)
(declare-const REAL Type)
(declare-const CHAR Type)
(declare-const USIZE Type)
(declare-const ISIZE Type)
(declare-const TYPE%tuple%0. Type)
(declare-fun UINT (Int) Type)
(declare-fun SINT (Int) Type)
(declare-fun FLOAT (Int) Type)
(declare-fun CONST_INT (Int) Type)
(declare-fun CONST_BOOL (Bool) Type)
(declare-sort Dcr 0)
(declare-const $ Dcr)
(declare-const $slice Dcr)
(declare-const $dyn Dcr)
(declare-fun DST (Dcr) Dcr)
(declare-fun REF (Dcr) Dcr)
(declare-fun BOX (Dcr Type Dcr) Dcr)
(declare-fun RC (Dcr Type Dcr) Dcr)
(declare-fun ARC (Dcr Type Dcr) Dcr)
(declare-fun GHOST (Dcr) Dcr)
(declare-fun TRACKED (Dcr) Dcr)
(declare-fun NEVER (Dcr) Dcr)
(declare-fun CONST_PTR (Dcr) Dcr)
(declare-fun ARRAY (Dcr Type Dcr Type) Type)
(declare-fun MUTREF (Dcr Type) Type)
(declare-fun SLICE (Dcr Type) Type)
(declare-const STRSLICE Type)
(declare-const ALLOCATOR_GLOBAL Type)
(declare-fun PTR (Dcr Type) Type)
(declare-fun has_type (Poly Type) Bool)
(declare-fun sized (Dcr) Bool)
(declare-fun as_type (Poly Type) Poly)
(declare-fun mk_fun (%%Function%%) %%Function%%)
(declare-fun const_int (Type) Int)
(declare-fun const_bool (Type) Bool)
(declare-fun mut_ref_current% (Poly) Poly)
(declare-fun mut_ref_future% (Poly) Poly)
(declare-fun mut_ref_update_current% (Poly Poly) Poly)
(declare-fun ext_eq (Bool Type Poly Poly) Bool)
(declare-const SZ Int)
(declare-fun uHi (Int) Int)
(declare-fun iLo (Int) Int)
(declare-fun iHi (Int) Int)
(declare-fun nClip (Int) Int)
(declare-fun uClip (Int Int) Int)
(declare-fun iClip (Int Int) Int)
(declare-fun charClip (Int) Int)
(declare-fun uInv (Int Int) Bool)
(declare-fun iInv (Int Int) Bool)
(declare-fun charInv (Int) Bool)
(declare-fun Add (Int Int) Int)
(declare-fun Sub (Int Int) Int)
(declare-fun Mul (Int Int) Int)
(declare-fun EucDiv (Int Int) Int)
(declare-fun EucMod (Int Int) Int)
(declare-fun RAdd (Real Real) Real)
(declare-fun RSub (Real Real) Real)
(declare-fun RMul (Real Real) Real)
(declare-fun RDiv (Real Real) Real)
(declare-fun bitxor (Poly Poly) Int)
(declare-fun bitand (Poly Poly) Int)
(declare-fun bitor (Poly Poly) Int)
(declare-fun bitshr (Poly Poly) Int)
(declare-fun bitshl (Poly Poly) Int)
(declare-fun bitnot (Poly) Int)
(declare-fun singular_mod (Int Int) Int)
(declare-fun has_resolved (Dcr Type Poly) Bool)
(declare-fun closure_req (Type Dcr Type Poly Poly) Bool)
(declare-fun closure_ens (Type Dcr Type Poly Poly Poly) Bool)
(declare-fun default_ens (Type Dcr Type Poly Poly Poly) Bool)
(declare-fun height (Poly) Height)
(declare-fun height_lt (Height Height) Bool)
(declare-fun fun_from_recursive_field (Poly) Poly)
(declare-fun check_decrease_height (Poly Poly Bool) Bool)
(declare-fun partial-order (Height Height) Bool)
(declare-const fuel%vstd!function.axiom_fn_mut_call_requires. FuelId)
(declare-const fuel%vstd!function.axiom_fn_mut_call_ensures. FuelId)
(declare-const fuel%vstd!array.group_array_axioms. FuelId)
(declare-const fuel%vstd!function.group_function_axioms. FuelId)
(declare-const fuel%vstd!imap.group_imap_lemmas. FuelId)
(declare-const fuel%vstd!iset.group_iset_lemmas. FuelId)
(declare-const fuel%vstd!laws_cmp.group_laws_cmp. FuelId)
(declare-const fuel%vstd!laws_eq.bool_laws.group_laws_eq. FuelId)
(declare-const fuel%vstd!laws_eq.u8_laws.group_laws_eq. FuelId)
(declare-const fuel%vstd!laws_eq.i8_laws.group_laws_eq. FuelId)
(declare-const fuel%vstd!laws_eq.u16_laws.group_laws_eq. FuelId)
(declare-const fuel%vstd!laws_eq.i16_laws.group_laws_eq. FuelId)
(declare-const fuel%vstd!laws_eq.u32_laws.group_laws_eq. FuelId)
(declare-const fuel%vstd!laws_eq.i32_laws.group_laws_eq. FuelId)
(declare-const fuel%vstd!laws_eq.u64_laws.group_laws_eq. FuelId)
(declare-const fuel%vstd!laws_eq.i64_laws.group_laws_eq. FuelId)
(declare-const fuel%vstd!laws_eq.u128_laws.group_laws_eq. FuelId)
(declare-const fuel%vstd!laws_eq.i128_laws.group_laws_eq. FuelId)
(declare-const fuel%vstd!laws_eq.usize_laws.group_laws_eq. FuelId)
(declare-const fuel%vstd!laws_eq.isize_laws.group_laws_eq. FuelId)
(declare-const fuel%vstd!laws_eq.tuple_1_laws.group_laws_eq. FuelId)
(declare-const fuel%vstd!laws_eq.tuple_2_laws.group_laws_eq. FuelId)
(declare-const fuel%vstd!laws_eq.tuple_3_laws.group_laws_eq. FuelId)
(declare-const fuel%vstd!laws_eq.tuple_4_laws.group_laws_eq. FuelId)
(declare-const fuel%vstd!laws_eq.tuple_5_laws.group_laws_eq. FuelId)
(declare-const fuel%vstd!laws_eq.tuple_6_laws.group_laws_eq. FuelId)
(declare-const fuel%vstd!laws_eq.tuple_7_laws.group_laws_eq. FuelId)
(declare-const fuel%vstd!laws_eq.tuple_8_laws.group_laws_eq. FuelId)
(declare-const fuel%vstd!laws_eq.tuple_9_laws.group_laws_eq. FuelId)
(declare-const fuel%vstd!laws_eq.tuple_10_laws.group_laws_eq. FuelId)
(declare-const fuel%vstd!laws_eq.tuple_11_laws.group_laws_eq. FuelId)
(declare-const fuel%vstd!laws_eq.tuple_12_laws.group_laws_eq. FuelId)
(declare-const fuel%vstd!laws_eq.group_laws_eq. FuelId)
(declare-const fuel%vstd!layout.group_align_properties. FuelId)
(declare-const fuel%vstd!layout.group_layout_axioms. FuelId)
(declare-const fuel%vstd!map.group_map_lemmas. FuelId)
(declare-const fuel%vstd!multiset.group_multiset_axioms. FuelId)
(declare-const fuel%vstd!raw_ptr.group_raw_ptr_axioms. FuelId)
(declare-const fuel%vstd!seq.group_seq_axioms. FuelId)
(declare-const fuel%vstd!seq_lib.group_filter_ensures. FuelId)
(declare-const fuel%vstd!seq_lib.group_seq_lib_default. FuelId)
(declare-const fuel%vstd!set.group_set_lemmas. FuelId)
(declare-const fuel%vstd!set_lib.group_set_lib_default. FuelId)
(declare-const fuel%vstd!slice.group_slice_axioms. FuelId)
(declare-const fuel%vstd!string.group_string_axioms. FuelId)
(declare-const fuel%vstd!std_specs.bits.group_bits_axioms. FuelId)
(declare-const fuel%vstd!std_specs.control_flow.group_control_flow_axioms. FuelId)
(declare-const fuel%vstd!std_specs.iter.group_iter_axioms. FuelId)
(declare-const fuel%vstd!std_specs.manually_drop.group_manually_drop_axioms. FuelId)
(declare-const fuel%vstd!std_specs.btree.group_btree_axioms. FuelId)
(declare-const fuel%vstd!std_specs.hash.group_hash_axioms. FuelId)
(declare-const fuel%vstd!std_specs.range.group_range_axioms. FuelId)
(declare-const fuel%vstd!std_specs.slice.group_slice_axioms. FuelId)
(declare-const fuel%vstd!std_specs.vec.group_vec_axioms. FuelId)
(declare-const fuel%vstd!std_specs.vecdeque.group_vec_dequeue_axioms. FuelId)
(declare-const fuel%vstd!group_vstd_default. FuelId)
(declare-fun tr_bound%core!marker.Tuple. (Dcr Type) Bool)
(declare-fun tr_bound%core!ops.function.FnOnce. (Dcr Type Dcr Type) Bool)
(declare-fun tr_bound%core!ops.function.FnMut. (Dcr Type Dcr Type) Bool)
(declare-fun tr_bound%core!ops.function.Fn. (Dcr Type Dcr Type) Bool)
(declare-fun tr_bound%core!alloc.Allocator. (Dcr Type) Bool)
(declare-fun proj%%core!ops.function.FnOnce./Output (Dcr Type Dcr Type) Dcr)
(declare-fun proj%core!ops.function.FnOnce./Output (Dcr Type Dcr Type) Type)
(declare-datatypes ((tuple%0. 0)) (((tuple%0./tuple%0))))
(declare-fun Poly%tuple%0. (tuple%0.) Poly)
(declare-fun %Poly%tuple%0. (Poly) tuple%0.)
(declare-fun ens%false!p. (Int) Bool)
(assert
 (forall ((x Height) (y Height)) (= (height_lt x y) (and
    (partial-order x y)
    (not (= x y))
))))
(assert
 (distinct fuel%vstd!function.axiom_fn_mut_call_requires. fuel%vstd!function.axiom_fn_mut_call_ensures.
  fuel%vstd!array.group_array_axioms. fuel%vstd!function.group_function_axioms. fuel%vstd!imap.group_imap_lemmas.
  fuel%vstd!iset.group_iset_lemmas. fuel%vstd!laws_cmp.group_laws_cmp. fuel%vstd!laws_eq.bool_laws.group_laws_eq.
  fuel%vstd!laws_eq.u8_laws.group_laws_eq. fuel%vstd!laws_eq.i8_laws.group_laws_eq.
  fuel%vstd!laws_eq.u16_laws.group_laws_eq. fuel%vstd!laws_eq.i16_laws.group_laws_eq.
  fuel%vstd!laws_eq.u32_laws.group_laws_eq. fuel%vstd!laws_eq.i32_laws.group_laws_eq.
  fuel%vstd!laws_eq.u64_laws.group_laws_eq. fuel%vstd!laws_eq.i64_laws.group_laws_eq.
  fuel%vstd!laws_eq.u128_laws.group_laws_eq. fuel%vstd!laws_eq.i128_laws.group_laws_eq.
  fuel%vstd!laws_eq.usize_laws.group_laws_eq. fuel%vstd!laws_eq.isize_laws.group_laws_eq.
  fuel%vstd!laws_eq.tuple_1_laws.group_laws_eq. fuel%vstd!laws_eq.tuple_2_laws.group_laws_eq.
  fuel%vstd!laws_eq.tuple_3_laws.group_laws_eq. fuel%vstd!laws_eq.tuple_4_laws.group_laws_eq.
  fuel%vstd!laws_eq.tuple_5_laws.group_laws_eq. fuel%vstd!laws_eq.tuple_6_laws.group_laws_eq.
  fuel%vstd!laws_eq.tuple_7_laws.group_laws_eq. fuel%vstd!laws_eq.tuple_8_laws.group_laws_eq.
  fuel%vstd!laws_eq.tuple_9_laws.group_laws_eq. fuel%vstd!laws_eq.tuple_10_laws.group_laws_eq.
  fuel%vstd!laws_eq.tuple_11_laws.group_laws_eq. fuel%vstd!laws_eq.tuple_12_laws.group_laws_eq.
  fuel%vstd!laws_eq.group_laws_eq. fuel%vstd!layout.group_align_properties. fuel%vstd!layout.group_layout_axioms.
  fuel%vstd!map.group_map_lemmas. fuel%vstd!multiset.group_multiset_axioms. fuel%vstd!raw_ptr.group_raw_ptr_axioms.
  fuel%vstd!seq.group_seq_axioms. fuel%vstd!seq_lib.group_filter_ensures. fuel%vstd!seq_lib.group_seq_lib_default.
  fuel%vstd!set.group_set_lemmas. fuel%vstd!set_lib.group_set_lib_default. fuel%vstd!slice.group_slice_axioms.
  fuel%vstd!string.group_string_axioms. fuel%vstd!std_specs.bits.group_bits_axioms.
  fuel%vstd!std_specs.control_flow.group_control_flow_axioms. fuel%vstd!std_specs.iter.group_iter_axioms.
  fuel%vstd!std_specs.manually_drop.group_manually_drop_axioms. fuel%vstd!std_specs.btree.group_btree_axioms.
  fuel%vstd!std_specs.hash.group_hash_axioms. fuel%vstd!std_specs.range.group_range_axioms.
  fuel%vstd!std_specs.slice.group_slice_axioms. fuel%vstd!std_specs.vec.group_vec_axioms.
  fuel%vstd!std_specs.vecdeque.group_vec_dequeue_axioms. fuel%vstd!group_vstd_default.
))
(assert
 (=>
  (fuel_bool_default fuel%vstd!laws_eq.group_laws_eq.)
  (and
   (fuel_bool_default fuel%vstd!laws_eq.bool_laws.group_laws_eq.)
   (fuel_bool_default fuel%vstd!laws_eq.u8_laws.group_laws_eq.)
   (fuel_bool_default fuel%vstd!laws_eq.i8_laws.group_laws_eq.)
   (fuel_bool_default fuel%vstd!laws_eq.u16_laws.group_laws_eq.)
   (fuel_bool_default fuel%vstd!laws_eq.i16_laws.group_laws_eq.)
   (fuel_bool_default fuel%vstd!laws_eq.u32_laws.group_laws_eq.)
   (fuel_bool_default fuel%vstd!laws_eq.i32_laws.group_laws_eq.)
   (fuel_bool_default fuel%vstd!laws_eq.u64_laws.group_laws_eq.)
   (fuel_bool_default fuel%vstd!laws_eq.i64_laws.group_laws_eq.)
   (fuel_bool_default fuel%vstd!laws_eq.u128_laws.group_laws_eq.)
   (fuel_bool_default fuel%vstd!laws_eq.i128_laws.group_laws_eq.)
   (fuel_bool_default fuel%vstd!laws_eq.usize_laws.group_laws_eq.)
   (fuel_bool_default fuel%vstd!laws_eq.isize_laws.group_laws_eq.)
   (fuel_bool_default fuel%vstd!laws_eq.tuple_1_laws.group_laws_eq.)
   (fuel_bool_default fuel%vstd!laws_eq.tuple_2_laws.group_laws_eq.)
   (fuel_bool_default fuel%vstd!laws_eq.tuple_3_laws.group_laws_eq.)
   (fuel_bool_default fuel%vstd!laws_eq.tuple_4_laws.group_laws_eq.)
   (fuel_bool_default fuel%vstd!laws_eq.tuple_5_laws.group_laws_eq.)
   (fuel_bool_default fuel%vstd!laws_eq.tuple_6_laws.group_laws_eq.)
   (fuel_bool_default fuel%vstd!laws_eq.tuple_7_laws.group_laws_eq.)
   (fuel_bool_default fuel%vstd!laws_eq.tuple_8_laws.group_laws_eq.)
   (fuel_bool_default fuel%vstd!laws_eq.tuple_9_laws.group_laws_eq.)
   (fuel_bool_default fuel%vstd!laws_eq.tuple_10_laws.group_laws_eq.)
   (fuel_bool_default fuel%vstd!laws_eq.tuple_11_laws.group_laws_eq.)
   (fuel_bool_default fuel%vstd!laws_eq.tuple_12_laws.group_laws_eq.)
)))
(assert
 (forall ((no%param Int)) (!
   (= (ens%false!p. no%param) false)
   :pattern ((ens%false!p. no%param))
   :qid internal_ens__false!p._definition
)))
(check-sat)
